
  32    4
  10   10   10   10

   0   0   0   0   0  11 2 5 6 8 14 26 27 28 29 30 31 
   5   1   1   0   1   7 25 24 23 22 12 9 3 
   7   5   8   0   4   4 19 17 13 4 
   4   7   5   1   0   4 21 18 15 7 
   3   3   0   6   3   5 20 18 17 16 15 
   7   2   0   3   3   2 12 11 
   2   4   0   3   5   2 20 10 
   8   3   0   2   3   2 22 18 
   2   7   5   2   0   1 11 
   8   0   3   3   3   1 16 
   9   6   3   0   2   1 19 
   9   6   0   6   3   1 17 
   5   0   6   3   6   1 15 
   4   4   6   0   3   1 15 
   6   0   3   4   6   1 32
   7   0   2   6   9   1 32
   9   1   2   8   0   1 32
   2   0   6   3   7   1 32
   6   0   6   3   5   1 32
   5   1   4   2   0   1 32
   1   0   3   7   5   1 32
  10   0   4   8   2   1 32
   4   3   2   0   2   1 32
   7   4   0   6   6   1 32
   2   5   0   2   3   1 32
   4   8   5   0   4   1 32
   9   3   4   3   0   1 32
   8   0   5   6   3   1 32
   4   2   2   3   0   1 32
   5   0   3   3   4   1 32
   5   5   4   3   0   1 32
   0   0   0   0   0   0 
